 vasp.6.3.2 27Jun22 (build Dec 21 2022 11:15:52) complex

 executed on Aspire2aVTSTlibbeefS date 2024.10.02  14:21:20

 INCAR:
   ALGO = Normal
   EDIFF = 1e-06
   IBRION = -1
   ICHARG = 0
   ISIF = 3
   ISMEAR = -5
   ISPIN = 2
   ISYM = 0
   LASPH = True
   LORBIT = 11
   LREAL = Auto
   LWAVE = False
   NELM = 500
   NSW = 0
   PREC = Accurate
   SIGMA = 0.05
   ENCUT = 600
   NCORE = 64
   KSPACING = 0.2742775232585705

 POTCAR:    PAW_PBE In_d 06Sep2000
 POTCAR:    PAW_PBE Te 08Apr2002
|           W    W    AA    RRRRR   N    N  II  N    N   GGGG   !!!           |
|           W    W   A  A   R    R  NN   N  II  NN   N  G    G  !!!           |
|           W    W  A    A  R    R  N N  N  II  N N  N  G       !!!           |
|           W WW W  AAAAAA  RRRRR   N  N N  II  N  N N  G  GGG   !            |
|           WW  WW  A    A  R   R   N   NN  II  N   NN  G    G                |
|           W    W  A    A  R    R  N    N  II  N    N   GGGG   !!!           |
|     You use a magnetic or noncollinear calculation, but did not specify     |
|     the initial magnetic moment with the MAGMOM tag. Note that a            |
|     default of 1 will be used for all atoms. This ferromagnetic setup       |
|     may break the symmetry of the crystal, in particular it may rule        |
|     out finding an antiferromagnetic solution. Thence, we recommend         |
|     setting the initial magnetic moment manually or verifying carefully     |
|     that this magnetic setup is desired.                                    |

 POTCAR:    PAW_PBE In_d 06Sep2000
   VRHFIN =In: s2p1

   TITEL  = PAW_PBE In_d 06Sep2000
   POMASS =  114.820; ZVAL   =   13.000    mass and valenz
   ENMAX  =  239.211; ENMIN  =  179.409 eV

 POTCAR:    PAW_PBE Te 08Apr2002
   VRHFIN =Te: s2p4

   TITEL  = PAW_PBE Te 08Apr2002
   POMASS =  127.600; ZVAL   =    6.000    mass and valenz
   ENMAX  =  174.982; ENMIN  =  131.236 eV

 Optimization of the real space projectors (new method)

 maximal supplied QI-value         = 15.12
 optimisation between [QCUT,QGAM] = [ 12.55, 25.10] = [ 44.09,176.36] Ry
 Optimized for a Real-space Cutoff    1.35 Angstroem

   l    n(q)    QCUT    max X(q) W(low)/X(q) W(high)/X(q)  e(spline)
   2      9    12.548     4.551    0.22E-03    0.22E-04    0.14E-06
   2      9    12.548     8.525    0.52E-04    0.12E-03    0.20E-06
   0     10    12.548   208.283    0.22E-03    0.11E-03    0.55E-06
   0     10    12.548   161.407    0.21E-03    0.11E-03    0.55E-06
   1     10    12.548   122.126    0.17E-03    0.34E-03    0.15E-06
   1     10    12.548    62.412    0.17E-03    0.33E-03    0.15E-06
 Optimization of the real space projectors (new method)

 maximal supplied QI-value         = 16.25
 optimisation between [QCUT,QGAM] = [ 12.51, 25.03] = [ 43.85,175.40] Ry
 Optimized for a Real-space Cutoff    1.27 Angstroem

   l    n(q)    QCUT    max X(q) W(low)/X(q) W(high)/X(q)  e(spline)
   0     10    12.514   224.858    0.15E-03    0.11E-03    0.12E-06
   0     10    12.514   205.313    0.15E-03    0.11E-03    0.12E-06
   1      9    12.514   119.695    0.70E-04    0.26E-03    0.21E-06
   1      9    12.514    84.282    0.69E-04    0.26E-03    0.21E-06
   2      9    12.514     5.599    0.93E-04    0.65E-04    0.52E-07
  PAW_PBE In_d 06Sep2000                :
  PAW_PBE Te 08Apr2002                  :

 POSCAR: In21 Te32
  positions in direct lattice
 exchange correlation table for  LEXCH =        8
   RHO(1)=    0.500       N(1)  =     2000
   RHO(2)=  100.500       N(2)  =     4000

 VTST: version 4.2, (08/11/21)

 CHAIN: initializing optimizer

 OPT: Using VASP Dynamics algorithm
 CHAIN: Read ICHAIN            0

 POSCAR: In21 Te32
  positions in direct lattice

 ion  position               nearest neighbor table
   1  0.250  0.250  0.500-  24 2.67  25 2.67  26 2.67  27 2.67
   2  0.000  0.500  0.000-  29 2.67  39 2.67  52 2.67  30 2.67
   3  0.250  0.500  0.250-  23 2.67  25 2.67  30 2.67  32 2.67
   4  0.250  0.750  0.000-  30 2.67  36 2.67  37 2.67  31 2.67
   5  0.000  0.500  0.500-  25 2.67  43 2.67  48 2.67  34 2.67
   6  0.000  0.750  0.750-  34 2.67  51 2.67  52 2.67  37 2.67
   7  0.250  0.500  0.750-  27 2.67  29 2.67  34 2.67  36 2.67
   8  0.250  0.750  0.500-  32 2.67  33 2.67  34 2.67  35 2.67
   9  0.500  0.000  0.000-  28 2.67  31 2.67  53 2.67  38 2.67
  10  0.500  0.250  0.250-  23 2.67  24 2.67  38 2.67  41 2.67
  11  0.750  0.000  0.250-  38 2.67  47 2.67  49 2.67  40 2.67
  12  0.750  0.250  0.000-  38 2.67  44 2.67  45 2.67  39 2.67
  13  0.500  0.250  0.750-  27 2.67  28 2.67  42 2.67  45 2.67
  14  0.750  0.000  0.750-  42 2.67  51 2.67  53 2.67  44 2.67
  15  0.750  0.250  0.500-  40 2.67  41 2.67  42 2.67  43 2.67
  16  0.500  0.750  0.250-  31 2.67  32 2.67  46 2.67  49 2.67
  17  0.750  0.500  0.250-  39 2.67  41 2.67  46 2.67  48 2.67
  18  0.750  0.750  0.000-  46 2.67  52 2.67  53 2.67  47 2.67
  19  0.500  0.500  0.500-  27 2.67  32 2.67  41 2.67  50 2.67
  20  0.500  0.750  0.750-  35 2.67  36 2.67  50 2.67  53 2.67
  21  0.750  0.750  0.500-  48 2.67  49 2.67  50 2.67  51 2.67
  22  0.125  0.125  0.125-
  23  0.375  0.375  0.125-   3 2.67  10 2.67
  24  0.375  0.125  0.375-   1 2.67  10 2.67
  25  0.125  0.375  0.375-   1 2.67   3 2.67   5 2.67
  26  0.125  0.125  0.625-   1 2.67
  27  0.375  0.375  0.625-   7 2.67  13 2.67  19 2.67   1 2.67
  28  0.375  0.125  0.875-   9 2.67  13 2.67
  29  0.125  0.375  0.875-   2 2.67   7 2.67
  30  0.125  0.625  0.125-   3 2.67   4 2.67   2 2.67
  31  0.375  0.875  0.125-   9 2.67  16 2.67   4 2.67
  32  0.375  0.625  0.375-   8 2.67  16 2.67  19 2.67   3 2.67
  33  0.125  0.875  0.375-   8 2.67
  34  0.125  0.625  0.625-   6 2.67   7 2.67   8 2.67   5 2.67
  35  0.375  0.875  0.625-  20 2.67   8 2.67
  36  0.375  0.625  0.875-   4 2.67  20 2.67   7 2.67
  37  0.125  0.875  0.875-   4 2.67   6 2.67
  38  0.625  0.125  0.125-  10 2.67  11 2.67  12 2.67   9 2.67
  39  0.875  0.375  0.125-   2 2.67  17 2.67  12 2.67
  40  0.875  0.125  0.375-  15 2.67  11 2.67
  41  0.625  0.375  0.375-  15 2.67  17 2.67  19 2.67  10 2.67
  42  0.625  0.125  0.625-  13 2.67  14 2.67  15 2.67
  43  0.875  0.375  0.625-   5 2.67  15 2.67
  44  0.875  0.125  0.875-  12 2.67  14 2.67
  45  0.625  0.375  0.875-  12 2.67  13 2.67
  46  0.625  0.625  0.125-  16 2.67  17 2.67  18 2.67
  47  0.875  0.875  0.125-  11 2.67  18 2.67
  48  0.875  0.625  0.375-   5 2.67  21 2.67  17 2.67
  49  0.625  0.875  0.375-  11 2.67  21 2.67  16 2.67
  50  0.625  0.625  0.625-  20 2.67  21 2.67  19 2.67
  51  0.875  0.875  0.625-   6 2.67  14 2.67  21 2.67
  52  0.875  0.625  0.875-   2 2.67   6 2.67  18 2.67
  53  0.625  0.875  0.875-   9 2.67  14 2.67  18 2.67  20 2.67

IMPORTANT INFORMATION: All symmetrisations will be switched off!
NOSYMM: (Re-)initialisation of all symmetry stuff for point group C_1.

                                     Primitive cell

  volume of cell :    1872.6926

  direct lattice vectors                    reciprocal lattice vectors
    12.326000000  0.000000000  0.000000000     0.081129320 -0.000000000  0.000000000
     0.000000000 12.326000000  0.000000000     0.000000000  0.081129320  0.000000000
     0.000000000  0.000000000 12.326000000    -0.000000000 -0.000000000  0.081129320

  length of vectors
    12.326000000 12.326000000 12.326000000     0.081129320  0.081129320  0.081129320

  position of ions in fractional coordinates (direct lattice)
     0.250000000  0.250000000  0.500000000
     1.000000000  0.500000000  0.000000000
     0.250000000  0.500000000  0.250000000
     0.250000000  0.750000000  0.000000000
     1.000000000  0.500000000  0.500000000
     1.000000000  0.750000000  0.750000000
     0.250000000  0.500000000  0.750000000
     0.250000000  0.750000000  0.500000000
     0.500000000  0.000000000  0.000000000
     0.500000000  0.250000000  0.250000000
     0.750000000  0.000000000  0.250000000
     0.750000000  0.250000000  0.000000000
     0.500000000  0.250000000  0.750000000
     0.750000000  0.000000000  0.750000000
     0.750000000  0.250000000  0.500000000
     0.500000000  0.750000000  0.250000000
     0.750000000  0.500000000  0.250000000
     0.750000000  0.750000000  0.000000000
     0.500000000  0.500000000  0.500000000
     0.500000000  0.750000000  0.750000000
     0.750000000  0.750000000  0.500000000
     0.125000000  0.125000000  0.125000000
     0.375000000  0.375000000  0.125000000
     0.375000000  0.125000000  0.375000000
     0.125000000  0.375000000  0.375000000
     0.125000000  0.125000000  0.625000000
     0.375000000  0.375000000  0.625000000
     0.375000000  0.125000000  0.875000000
     0.125000000  0.375000000  0.875000000
     0.125000000  0.625000000  0.125000000
     0.375000000  0.875000000  0.125000000
     0.375000000  0.625000000  0.375000000
     0.125000000  0.875000000  0.375000000
     0.125000000  0.625000000  0.625000000
     0.375000000  0.875000000  0.625000000
     0.375000000  0.625000000  0.875000000
     0.125000000  0.875000000  0.875000000
     0.625000000  0.125000000  0.125000000
     0.875000000  0.375000000  0.125000000
     0.875000000  0.125000000  0.375000000
     0.625000000  0.375000000  0.375000000
     0.625000000  0.125000000  0.625000000
     0.875000000  0.375000000  0.625000000
     0.875000000  0.125000000  0.875000000
     0.625000000  0.375000000  0.875000000
     0.625000000  0.625000000  0.125000000
     0.875000000  0.875000000  0.125000000
     0.875000000  0.625000000  0.375000000
     0.625000000  0.875000000  0.375000000
     0.625000000  0.625000000  0.625000000
     0.875000000  0.875000000  0.625000000
     0.875000000  0.625000000  0.875000000
     0.625000000  0.875000000  0.875000000

  ion indices of the primitive-cell ions
   primitive index   ion index
                 1           1
                 2           2
                 3           3
                 4           4
                 5           5
                 6           6
                 7           7
                 8           8
                 9           9
                10          10
                11          11
                12          12
                13          13
                14          14
                15          15
                16          16
                17          17
                18          18
                19          19
                20          20
                21          21
                22          22
                23          23
                24          24
                25          25
                26          26
                27          27
                28          28
                29          29
                30          30
                31          31
                32          32
                33          33
                34          34
                35          35
                36          36
                37          37
                38          38
                39          39
                40          40
                41          41
                42          42
                43          43
                44          44
                45          45
[...]
  E(xc)   -2160.22633 -2160.26599 -2160.41203     0.23571     0.08388     0.08696
  Local   -5662.08348 -5204.11786 -9250.57419    75.00779   -64.20686   380.10899
  n-local  4530.71759  4530.60905  4536.49468    -3.55087    -1.53887    -1.21365
  augment  2488.64254  2488.48993  2487.26152     1.27089     0.48316     0.68653
  Kinetic  3816.88983  3818.46252  3820.32664    -4.31180    -2.56617    -3.58355
  Fock        0.00000     0.00000     0.00000     0.00000     0.00000     0.00000
  Total     104.71229   105.91989   104.65264    -0.61487    -0.96772    -2.81189
  in kB      89.58633    90.61949    89.53529    -0.52605    -0.82793    -2.40571

 VOLUME and BASIS-vectors are now :
  energy-cutoff  :      600.00
  volume of cell :     1872.69
      direct lattice vectors                 reciprocal lattice vectors
    12.326000000  0.000000000  0.000000000     0.081129320 -0.000000000  0.000000000
     0.000000000 12.326000000  0.000000000     0.000000000  0.081129320  0.000000000
     0.000000000  0.000000000 12.326000000    -0.000000000 -0.000000000  0.081129320

  length of vectors
    12.326000000 12.326000000 12.326000000     0.081129320  0.081129320  0.081129320

 FORCES acting on ions
    electron-ion (+dipol)            ewald-force                    non-local-force                 convergence-correction
   0.164E+03 0.278E+03 0.141E+01   -.168E+03 -.285E+03 -.799E-14   0.310E+01 0.562E+01 -.129E+01   0.101E-03 -.121E-03 -.816E-03
   -.311E+02 0.149E+03 -.243E+01   0.342E+02 -.151E+03 -.790E-13   -.242E+01 0.152E+01 0.181E+01   0.128E-03 -.300E-03 0.283E-03
   0.110E+03 0.883E+02 0.131E+03   -.110E+03 -.927E+02 -.134E+03   -.279E+00 0.343E+01 0.212E+01   -.591E-04 -.641E-03 -.668E-03
   0.107E+03 -.167E+03 -.617E+02   -.110E+03 0.168E+03 0.585E+02   0.250E+01 -.120E+01 0.233E+01   -.263E-03 0.422E-03 0.225E-03
   0.215E+02 0.879E+02 0.121E+01   -.244E+02 -.927E+02 -.560E-13   0.220E+01 0.372E+01 -.973E+00   -.243E-03 -.340E-03 -.217E-03
   -.319E+02 -.165E+03 -.128E+02   0.342E+02 0.168E+03 0.171E+02   -.184E+01 -.238E+01 -.316E+01   -.137E-03 0.477E-03 0.514E-03
   0.480E+02 0.149E+03 -.130E+03   -.513E+02 -.151E+03 0.134E+03   0.261E+01 0.155E+01 -.340E+01   0.253E-04 -.170E-03 0.581E-03
   0.108E+03 -.277E+03 0.567E+02   -.110E+03 0.285E+03 -.585E+02   0.185E+01 -.638E+01 0.162E+01   0.270E-03 0.181E-03 0.551E-04
   0.206E+03 -.894E+02 -.265E+01   -.210E+03 0.927E+02 -.284E-13   0.308E+01 -.258E+01 0.198E+01   -.766E-03 0.409E-03 0.113E-03
   0.144E+03 0.109E+03 0.765E+02   -.151E+03 -.110E+03 -.756E+02   0.525E+01 0.390E+00 -.823E+00   -.783E-03 -.173E-03 -.504E-03
   -.222E+03 -.349E+02 -.408E+02   0.227E+03 0.342E+02 0.415E+02   -.413E+01 0.388E+00 -.528E+00   0.772E-03 0.628E-04 -.394E-03
   -.168E+03 -.729E+01 0.525E+02   0.168E+03 0.729E+01 -.585E+02   -.228E+00 0.794E-01 0.447E+01   0.340E-03 -.141E-03 0.415E-04
   0.949E+02 0.490E+02 -.700E+02   -.927E+02 -.513E+02 0.756E+02   -.147E+01 0.172E+01 -.424E+01   -.308E-05 -.799E-04 0.537E-03
   -.165E+03 -.883E+02 0.430E+02   0.168E+03 0.927E+02 -.415E+02   -.231E+01 -.337E+01 -.117E+01   0.318E-03 0.123E-03 0.280E-03
   -.163E+03 0.108E+03 -.574E+02   0.168E+03 -.110E+03 0.585E+02   -.392E+01 0.107E+01 -.780E+00   0.453E-03 -.177E-03 -.145E-03
   0.941E+02 -.108E+03 0.155E+02   -.927E+02 0.110E+03 -.171E+02   -.887E+00 -.120E+01 0.128E+01   0.192E-03 0.131E-03 -.121E-03
   -.108E+03 0.347E+02 0.746E+02   0.110E+03 -.342E+02 -.756E+02   -.114E+01 -.248E+00 0.833E+00   -.934E-05 0.500E-04 -.172E-03
   -.106E+03 0.952E+01 0.361E+01   0.110E+03 -.729E+01 -.142E-13   -.295E+01 -.169E+01 -.273E+01   0.408E-03 0.370E-03 0.373E-03
   -.239E+02 0.346E+02 -.575E+02   0.244E+02 -.342E+02 0.585E+02   -.260E+00 -.876E-01 -.846E+00   0.636E-04 0.123E-03 -.237E-03
   0.293E+02 -.489E+02 -.212E+02   -.342E+02 0.513E+02 0.171E+02   0.367E+01 -.188E+01 0.321E+01   -.138E-03 0.163E-03 0.158E-03
   -.110E+03 -.110E+03 -.134E+00   0.110E+03 0.110E+03 0.355E-14   0.133E-01 -.711E-01 0.872E-02   -.708E-05 0.101E-03 -.237E-03
   0.108E+02 0.275E+02 0.137E+02   -.106E+02 -.277E+02 -.137E+02   -.151E+00 0.145E+00 -.935E-01   -.134E-04 0.164E-04 -.320E-04
   0.574E+02 0.578E+02 0.157E+03   -.581E+02 -.581E+02 -.164E+03   0.708E+00 0.494E+00 0.638E+01   -.226E-03 -.254E-03 -.232E-04
   0.873E+02 0.163E+03 0.934E+01   -.881E+02 -.170E+03 -.926E+01   0.107E+01 0.574E+01 -.702E-01   -.155E-03 0.304E-04 -.337E-03
   0.871E+02 0.146E+03 0.905E+02   -.905E+02 -.151E+03 -.940E+02   0.249E+01 0.414E+01 0.245E+01   -.140E-04 -.224E-03 -.349E-03
   0.698E+02 0.916E+02 -.742E+02   -.726E+02 -.945E+02 0.770E+02   0.288E+01 0.293E+01 -.263E+01   -.699E-04 -.446E-04 0.665E-04
   0.314E+02 0.701E+02 -.498E+02   -.321E+02 -.711E+02 0.491E+02   0.808E+00 0.126E+01 0.723E+00   -.551E-05 -.781E-04 0.256E-04
   0.217E+03 -.499E+01 -.111E+02   -.225E+03 0.486E+01 0.112E+02   0.632E+01 -.231E+00 0.479E-03   -.204E-03 0.220E-04 0.318E-03
   0.122E+02 0.217E+03 -.283E+02   -.122E+02 -.225E+03 0.283E+02   0.440E-01 0.618E+01 -.106E+00   0.137E-04 -.218E-03 0.325E-03
   0.686E+02 -.796E+02 -.593E+02   -.726E+02 0.841E+02 0.630E+02   0.319E+01 -.329E+01 -.223E+01   -.896E-05 -.374E-04 -.469E-04
   0.149E+03 -.120E+03 -.644E+02   -.153E+03 0.125E+03 0.687E+02   0.347E+01 -.357E+01 -.311E+01   -.191E-03 0.230E-03 -.397E-04
   0.398E+02 -.425E+02 0.277E+02   -.411E+02 0.432E+02 -.272E+02   0.135E+01 -.778E+00 -.594E+00   0.147E-04 -.399E-04 -.158E-03
   0.723E+02 -.152E+03 0.850E+02   -.750E+02 0.155E+03 -.875E+02   0.258E+01 -.321E+01 0.238E+01   -.689E-04 0.251E-03 -.316E-03
   0.307E+02 -.270E+02 -.309E+01   -.301E+02 0.277E+02 0.271E+01   -.670E+00 -.960E+00 0.106E+00   -.421E-04 -.205E-04 0.345E-04
   0.571E+02 -.196E+03 0.127E+02   -.581E+02 0.203E+03 -.127E+02   0.109E+01 -.614E+01 0.779E-01   0.231E-04 0.873E-04 0.473E-04
   -.492E+02 0.724E+02 -.803E+02   0.527E+02 -.765E+02 0.846E+02   -.213E+01 0.282E+01 -.332E+01   -.248E-04 -.186E-04 0.160E-03
   0.807E+01 -.224E+03 -.241E+02   -.817E+01 0.232E+03 0.242E+02   0.363E-01 -.653E+01 -.182E-01   -.517E-04 0.250E-03 0.315E-03
   0.122E+01 -.725E+01 -.384E+00   -.690E+00 0.730E+01 0.243E+00   -.570E+00 -.645E-01 0.534E+00   0.259E-04 0.226E-04 0.188E-06
   -.120E+03 0.110E+03 -.257E+02   0.125E+03 -.114E+03 0.297E+02   -.332E+01 0.311E+01 -.282E+01   0.185E-03 -.217E-03 -.468E-05
   -.210E+03 0.341E+02 0.817E+01   0.218E+03 -.342E+02 -.765E+01   -.614E+01 -.352E-01 -.632E+00   0.177E-03 0.192E-05 -.307E-03
   -.211E+02 0.400E+02 0.517E+01   0.213E+02 -.411E+02 -.522E+01   -.154E+00 0.115E+01 -.565E-01   0.283E-04 -.486E-04 -.142E-03
   0.480E+02 0.676E+02 0.561E+02   -.521E+02 -.710E+02 -.601E+02   0.281E+01 0.239E+01 0.259E+01   0.117E-04 -.826E-05 0.784E-05
   -.382E+02 0.573E+02 -.144E+03   0.385E+02 -.581E+02 0.152E+03   -.332E+00 0.923E+00 -.651E+01   0.109E-04 -.475E-04 0.115E-04
   -.224E+03 -.135E+02 -.249E+01   0.232E+03 0.138E+02 0.226E+01   -.616E+01 -.542E+00 0.375E+00   0.210E-03 -.508E-04 0.313E-03
   -.786E+01 -.109E+03 -.463E+01   0.822E+01 0.116E+03 0.470E+01   -.444E+00 -.532E+01 0.323E-01   -.325E-05 -.594E-04 0.134E-03
   0.482E+02 0.700E+02 0.921E+02   -.521E+02 -.741E+02 -.960E+02   0.262E+01 0.272E+01 0.289E+01   0.101E-04 -.261E-04 0.817E-05
   -.215E+03 -.579E+02 -.198E+02   0.223E+03 0.580E+02 0.197E+02   -.620E+01 0.270E-01 0.462E-01   0.213E-03 0.273E-03 -.540E-04
   -.106E+03 -.838E+02 0.676E+02   0.110E+03 0.881E+02 -.721E+02   -.314E+01 -.307E+01 0.328E+01   -.542E-05 -.150E-04 -.126E-03
   0.509E+02 -.106E+03 -.666E+02   -.546E+02 0.110E+03 0.706E+02   0.235E+01 -.383E+01 -.278E+01   0.257E-04 0.556E-04 -.113E-03
   -.776E+02 0.573E+02 -.926E+02   0.816E+02 -.611E+02 0.965E+02   -.283E+01 0.255E+01 -.293E+01   0.560E-04 0.124E-04 0.119E-04
   -.120E+03 -.120E+03 0.680E+02   0.125E+03 0.125E+03 -.722E+02   -.341E+01 -.374E+01 0.302E+01   0.409E-05 0.707E-04 0.417E-04
   0.453E+02 0.736E+02 0.478E+02   -.487E+02 -.781E+02 -.516E+02   0.209E+01 0.341E+01 0.283E+01   0.269E-04 0.167E-04 0.123E-03
   -.169E+01 -.137E+02 0.108E+02   0.174E+01 0.141E+02 -.108E+02   -.123E+00 -.782E+00 -.123E+00   0.535E-04 0.499E-04 0.914E-04
   -.257E+01 0.371E+01 0.594E+00   0.725E-12 0.373E-12 0.178E-12   0.256E+01 -.371E+01 -.596E+00   0.668E-03 0.452E-03 -.368E-03

 POSITION                                       TOTAL-FORCE (eV/Angst)
      3.08150      3.08150      6.16300        -0.904423     -1.751470      0.126261
      0.00000      6.16300      0.00000         0.628902     -0.235801     -0.617975
      3.08150      6.16300      3.08150         0.101626     -1.022829     -0.698022
      3.08150      9.24450      0.00000        -0.692318      0.248843     -0.785392
      0.00000      6.16300      6.16300        -0.668002     -1.060810      0.232613
      0.00000      9.24450      9.24450         0.384487      0.683231      1.077622
      3.08150      6.16300      9.24450        -0.642843     -0.231967      1.185468
      3.08150      9.24450      6.16300        -0.427858      2.144207     -0.267316
      6.16300      0.00000      0.00000        -0.923326      0.695868     -0.668063
      6.16300      3.08150      3.08150        -1.713570     -0.008528      0.097794
      9.24450      0.00000      3.08150         1.168828     -0.294839      0.092820
      9.24450      3.08150      0.00000         0.007353      0.076466     -1.572131
      6.16300      3.08150      9.24450         0.704186     -0.559473      1.416017
      9.24450      0.00000      9.24450         0.652098      1.081817      0.403713
      9.24450      3.08150      6.16300         1.329095     -0.356685      0.397869
      6.16300      9.24450      3.08150         0.544044      0.293461     -0.285652
      9.24450      6.16300      3.08150         0.280885      0.327567     -0.207686
      9.24450      9.24450      0.00000         1.058152      0.542428      0.875105
      6.16300      6.16300      6.16300         0.258437      0.308227      0.198323
      6.16300      9.24450      9.24450        -1.229629      0.448797     -0.862786
      9.24450      9.24450      6.16300        -0.093720     -0.061725     -0.125967
      1.54075      1.54075      1.54075         0.049488     -0.017485     -0.086035
      4.62225      4.62225      1.54075         0.059370      0.181628     -1.403282
      4.62225      1.54075      4.62225         0.261402     -1.194195      0.007393
      1.54075      4.62225      4.62225        -0.938865     -0.408582     -1.094595
      1.54075      1.54075      7.70375         0.045105     -0.002337      0.192218
      4.62225      4.62225      7.70375         0.110743      0.202512      0.041654
      4.62225      1.54075     10.78525        -1.580211     -0.353243      0.029839
      1.54075      4.62225     10.78525        -0.005083     -1.557586     -0.157675
      1.54075      7.70375      1.54075        -0.816383      1.174423      1.469042
      4.62225     10.78525      1.54075        -1.091576      1.068328      1.201241
      4.62225      7.70375      4.62225         0.040791     -0.087214     -0.018626
      1.54075     10.78525      4.62225        -0.140123     -0.035010     -0.193914
      1.54075      7.70375      7.70375        -0.088432     -0.221651     -0.268943
      4.62225     10.78525      7.70375         0.084793      1.196433      0.068224
      4.62225      7.70375     10.78525         1.393521     -1.323155      0.930033
      1.54075     10.78525     10.78525        -0.062483      1.519243      0.044695
      7.70375      1.54075      1.54075        -0.043326     -0.017639      0.393441
     10.78525      4.62225      1.54075         1.065700     -1.023507      1.193210
     10.78525      1.54075      4.62225         1.101303     -0.079400     -0.113620
      7.70375      4.62225      4.62225        -0.027360      0.019176     -0.104204
      7.70375      1.54075      7.70375        -1.288681     -1.001053     -1.444125
     10.78525      4.62225      7.70375         0.021684      0.121159      1.330397
     10.78525      1.54075     10.78525         1.576630     -0.238754      0.151075
      7.70375      4.62225     10.78525        -0.077421      1.669792      0.096923
      7.70375      7.70375      1.54075        -1.295750     -1.335534     -0.970958
     10.78525     10.78525      1.54075         1.249044      0.122280     -0.106993
     10.78525      7.70375      4.62225         1.138526      1.255514     -1.146689
      7.70375     10.78525      4.62225        -1.355590      0.953180      1.221825
      7.70375      7.70375      7.70375         1.195975     -1.260458      0.965654
     10.78525     10.78525      7.70375         1.016631      0.967944     -1.171991
     10.78525      7.70375     10.78525        -1.350229     -1.146236     -0.972125
      7.70375     10.78525     10.78525        -0.071597     -0.415361     -0.095706
    total drift:                               -0.001413     -0.000489     -0.002124

  FREE ENERGIE OF THE ION-ELECTRON SYSTEM (eV)
  free  energy   TOTEN  =      -150.84326921 eV

  energy  without entropy=     -150.84326921  energy(sigma->0) =     -150.84326921

 stress matrix after NEB project (eV)
    104.71229     -0.61487     -2.81189
     -0.61487    105.91989     -0.96772
     -2.81189     -0.96772    104.65264
  FORCES: max atom, RMS     2.202758    1.432279
  FORCE total and by dimension   10.427148    2.144207
  Stress total and by dimension  182.083236  105.919892
|           W    W    AA    RRRRR   N    N  II  N    N   GGGG   !!!           |
|           W    W   A  A   R    R  NN   N  II  NN   N  G    G  !!!           |
|           W    W  A    A  R    R  N N  N  II  N N  N  G       !!!           |
|           W WW W  AAAAAA  RRRRR   N  N N  II  N  N N  G  GGG   !            |
|           WW  WW  A    A  R   R   N   NN  II  N   NN  G    G                |
|           W    W  A    A  R    R  N    N  II  N    N   GGGG   !!!           |
|     Tetrahedron method does not include variations of the Fermi             |
|     occupations, so forces and stress will be inaccurate. We suggest        |
|     using a different smearing scheme ISMEAR = 1 or 2 for metals in         |
|     relaxations.                                                            |

 total charge

[...]

 magnetization (x)

# of ion       s       p       d       tot
    1        0.000   0.001  -0.001   0.000
    2        0.000  -0.001  -0.000  -0.001
    3       -0.001   0.000   0.000  -0.000
    4       -0.001  -0.001  -0.000  -0.001
    5       -0.001  -0.000   0.000  -0.001
    6       -0.005  -0.001  -0.000  -0.007
    7       -0.009   0.000  -0.000  -0.009
    8        0.000   0.001  -0.000   0.002
    9       -0.005  -0.002  -0.000  -0.007
   10       -0.003  -0.001   0.000  -0.004
   11       -0.000  -0.000  -0.000  -0.000
   12       -0.001  -0.000  -0.000  -0.002
   13       -0.003  -0.001   0.000  -0.004
   14       -0.006   0.000   0.000  -0.006
   15       -0.001   0.001  -0.000  -0.000
   16       -0.008  -0.002  -0.000  -0.010
   17       -0.009  -0.002  -0.000  -0.011
   18       -0.001   0.001  -0.000   0.000
   19       -0.008  -0.002  -0.001  -0.011
   20       -0.002  -0.002  -0.000  -0.004
   21       -0.002  -0.000  -0.000  -0.003
   22        0.010   0.687   0.000   0.698
   23        0.001   0.026   0.000   0.027
   24        0.001   0.021   0.000   0.022
   25        0.000   0.003   0.000   0.003
   26       -0.001  -0.053  -0.000  -0.054
   27       -0.001  -0.004  -0.001  -0.006
   28       -0.000   0.002  -0.000   0.002
   29        0.000   0.004  -0.000   0.004
   30       -0.000  -0.001  -0.000  -0.001
   31       -0.002  -0.001  -0.001  -0.004
   32       -0.001  -0.002  -0.001  -0.003
   33        0.001  -0.004   0.000  -0.002
   34       -0.002   0.003  -0.000   0.000
   35       -0.000  -0.001  -0.000  -0.001
   36       -0.000  -0.001  -0.000  -0.002
   37       -0.000   0.003   0.000   0.003
   38       -0.001  -0.001  -0.001  -0.003
   39       -0.002  -0.000  -0.001  -0.003
   40        0.001   0.004   0.000   0.005
   41       -0.001  -0.002  -0.001  -0.005
   42       -0.001   0.004  -0.000   0.003
   43       -0.000  -0.002  -0.000  -0.002
   44        0.001   0.008   0.000   0.009
   45       -0.000   0.000  -0.000   0.000
   46       -0.002   0.000  -0.000  -0.002
   47        0.002   0.008   0.000   0.010
   48       -0.001  -0.001  -0.000  -0.002
   49       -0.000  -0.001  -0.000  -0.001
   50       -0.002  -0.001  -0.001  -0.003
   51       -0.001  -0.003  -0.001  -0.005
   52       -0.000  -0.000  -0.000  -0.001
   53       -0.001  -0.002  -0.001  -0.004
tot         -0.070   0.683  -0.011   0.603

 BZINTS: Fermi energy:    5.436653;  465.000000 electrons
         Band energy:-0.226401E+04;  BLOECHL correction:   -0.035240